row=7;
column=7;
Board=[|3,5,6,4,7,1,2|2,6,3,7,4,5,1|4,1,7,3,2,6,5|1,3,2,5,6,4,7|6,7,5,1,3,2,4|5,2,4,6,1,7,3|7,4,1,2,5,3,6|];
horizontal=[|0,0,1,0,1,0|0,1,0,1,0,1|1,0,1,1,0,1|0,1,0,0,1,0|0,1,1,0,1,0|1,0,0,1,0,1|1,1,0,0,1,0|];
vertical=[|1,0,1,0,1,0,1|0,1,0,1,1,0,0|1,0,1,0,0,1,0|0,0,0,1,1,1,1|1,1,1,0,1,0,1|0,0,1,1,0,1,0|];
